
Log started (V11.0.0) Thu May 15 00:52:09 2008

Tried aggregator 1 time.
Reduced MIP has 210 rows, 2001 columns, and 4010 nonzeros.
Presolve time =    0.02 sec.
Clique table members: 200.
MIP emphasis: balance optimality and feasibility.
MIP search method: dynamic search.
Parallel mode: none, using 1 thread.
Root relaxation solution time =    0.03 sec.

        Nodes                                         Cuts/
   Node  Left     Objective  IInf  Best Integer     Best Node    ItCnt     Gap

*     0+    0                        22031.0000     2029.6871      251   90.79%
*     0+    0                         2041.0000     2029.6871      251    0.55%
      0     0     2030.0000    18     2041.0000      Fract: 6      271    0.54%
      0     0     2030.0000    20     2041.0000     Covers: 1      273    0.54%
      0     0     2030.0000    22     2041.0000     Covers: 1      291    0.54%
*     0+    0                         2040.0000     2030.0000      291    0.49%
      0     2     2030.0000    22     2040.0000     2030.0000      291    0.49%
    100    94     2032.0000    19     2040.0000     2030.0000     2531    0.49%
*   200+  122                         2035.0000     2030.0000     5633    0.25%
    200   124     2030.0000    19     2035.0000     2030.0000     5633    0.25%
    300   211     2031.0863    19     2035.0000     2030.0000     8894    0.25%
    400   276     2030.0003    19     2035.0000     2030.0000    12743    0.25%
*   483+  222                         2034.0000     2030.0000    15613    0.20%
    500   229     2030.0000    13     2034.0000     2030.0000    15808    0.20%
    600   226    infeasible           2034.0000     2030.0000    20399    0.20%
    700   226     2032.0000    22     2034.0000     2030.0000    23057    0.20%
    800   238     2033.0000    15     2034.0000     2030.0000    25823    0.20%
    900   301     2032.0000    20     2034.0000     2030.0000    29195    0.20%
*   983+  245                         2033.0000     2030.0000    31743    0.15%
   1000   260     2031.0000    12     2033.0000     2030.0000    32216    0.15%
Elapsed time =  11.52 sec. (tree size =  0.20 MB, solutions = 6)
*  1083+  204                         2032.0000     2030.0000    34673    0.10%
   1100   215     2031.0000    22     2032.0000     2030.0000    35645    0.10%
   1200   257     2031.0000    10     2032.0000     2030.0000    46350    0.10%
   1300   269     2031.0000    13     2032.0000     2030.0000    60885    0.10%
   1400   285     2031.0000    14     2032.0000     2030.0000    75750    0.10%
   1500   347     2031.0000    12     2032.0000     2030.0000    81518    0.10%
   1600   424     2031.0000    20     2032.0000     2030.0000    84425    0.10%
   1700   492    infeasible           2032.0000     2030.0000    87661    0.10%
   1800   516     2031.0000    18     2032.0000     2030.0000    98887    0.10%
   1900   556     2031.0000    28     2032.0000     2030.0000   109558    0.10%
   2000   609     2030.0000    14     2032.0000     2030.0000   114266    0.10%
Elapsed time =  29.86 sec. (tree size =  0.50 MB, solutions = 7)
   2100   678    infeasible           2032.0000     2030.0000   117365    0.10%
   2200   750     2031.0000     7     2032.0000     2030.0000   119350    0.10%
   2300   822    infeasible           2032.0000     2030.0000   123485    0.10%
   2400   912    infeasible           2032.0000     2030.0000   126142    0.10%
   2500   954     2031.0000    15     2032.0000     2030.0000   130386    0.10%
   2600  1024     2031.0000    18     2032.0000     2030.0000   132945    0.10%
   2700  1101     2031.0000    17     2032.0000     2030.0000   135092    0.10%
   2800  1177    infeasible           2032.0000     2030.0000   137559    0.10%
   2900  1262     2031.0000    30     2032.0000     2030.0000   140157    0.10%
   3000  1334     2031.0000    12     2032.0000     2030.0000   144235    0.10%
Elapsed time =  37.59 sec. (tree size =  1.14 MB, solutions = 7)
   3100  1424     2031.0000    18     2032.0000     2030.0000   148386    0.10%
   3200  1498     2031.0000    20     2032.0000     2030.0000   151555    0.10%
   3300  1567     2031.0000    24     2032.0000     2030.0000   154378    0.10%
   3400  1643     2031.0000    24     2032.0000     2030.0000   156824    0.10%
   3500  1718     2031.0000    20     2032.0000     2030.0000   159661    0.10%
   3600  1786     2031.0000    10     2032.0000     2030.0000   162529    0.10%
   3700  1834    infeasible           2032.0000     2030.0000   168814    0.10%
   3800  1898     2031.0000    10     2032.0000     2030.0000   172730    0.10%
   3900  1984    infeasible           2032.0000     2030.0000   175356    0.10%
   4000  2041     2031.0000    12     2032.0000     2030.0000   181627    0.10%
Elapsed time =  46.09 sec. (tree size =  1.75 MB, solutions = 7)
   4100  2141     2031.0000    16     2032.0000     2030.0000   182351    0.10%
   4200  2221     2031.0000    16     2032.0000     2030.0000   184622    0.10%
   4300  2306     2031.0000    19     2032.0000     2030.0000   187114    0.10%
   4400  2376     2031.0000    21     2032.0000     2030.0000   189856    0.10%
*  4483+   83                         2031.0000     2030.0000   193016    0.05%
   4500    72     2030.0000    30     2031.0000     2030.0000   197163    0.05%
   4600    36     2030.0000    32     2031.0000     2030.0000   223688    0.05%

Cover cuts applied:  158
Mixed integer rounding cuts applied:  10
Gomory fractional cuts applied:  30

Solution pool: 8 solutions saved.

MIP - Integer optimal solution:  Objective = 2.0310000000e+003
Solution time =   60.22 sec.  Iterations = 241796  Nodes = 4645


Incumbent solution
Variable Name           Solution Value
Cmax                       2031.000000
X_1_3                         1.000000
X_2_4                         1.000000
X_3_5                         1.000000
X_4_1                         1.000000
X_5_1                         1.000000
X_6_7                         1.000000
X_7_7                         1.000000
X_8_2                         1.000000
X_9_8                         1.000000
X_10_10                       1.000000
X_11_3                        1.000000
X_12_10                       1.000000
X_13_5                        1.000000
X_14_4                        1.000000
X_15_7                        1.000000
X_16_2                        1.000000
X_17_3                        1.000000
X_18_3                        1.000000
X_19_8                        1.000000
X_20_4                        1.000000
X_21_2                        1.000000
X_22_10                       1.000000
X_23_1                        1.000000
X_24_9                        1.000000
X_25_8                        1.000000
X_26_9                        1.000000
X_27_9                        1.000000
X_28_9                        1.000000
X_29_5                        1.000000
X_30_10                       1.000000
X_31_4                        1.000000
X_32_2                        1.000000
X_33_9                        1.000000
X_34_7                        1.000000
X_35_4                        1.000000
X_36_1                        1.000000
X_37_1                        1.000000
X_38_10                       1.000000
X_39_7                        1.000000
X_40_7                        1.000000
X_41_1                        1.000000
X_42_10                       1.000000
X_43_2                        1.000000
X_44_5                        1.000000
X_45_9                        1.000000
X_46_5                        1.000000
X_47_6                        1.000000
X_48_9                        1.000000
X_49_6                        1.000000
X_50_7                        1.000000
X_51_1                        1.000000
X_52_10                       1.000000
X_53_6                        1.000000
X_54_9                        1.000000
X_55_9                        1.000000
X_56_8                        1.000000
X_57_9                        1.000000
X_58_2                        1.000000
X_59_10                       1.000000
X_60_10                       1.000000
X_61_6                        1.000000
X_62_10                       1.000000
X_63_5                        1.000000
X_64_3                        1.000000
X_65_4                        1.000000
X_66_8                        1.000000
X_67_3                        1.000000
X_68_4                        1.000000
X_69_7                        1.000000
X_70_3                        1.000000
X_71_5                        1.000000
X_72_4                        1.000000
X_73_3                        1.000000
X_74_6                        1.000000
X_75_7                        1.000000
X_76_5                        1.000000
X_77_5                        1.000000
X_78_2                        1.000000
X_79_7                        1.000000
X_80_7                        1.000000
X_81_6                        1.000000
X_82_2                        1.000000
X_83_3                        1.000000
X_84_3                        1.000000
X_85_2                        1.000000
X_86_10                       1.000000
X_87_5                        1.000000
X_88_5                        1.000000
X_89_9                        1.000000
X_90_10                       1.000000
X_91_1                        1.000000
X_92_4                        1.000000
X_93_6                        1.000000
X_94_6                        1.000000
X_95_10                       1.000000
X_96_8                        1.000000
X_97_6                        1.000000
X_98_1                        1.000000
X_99_8                        1.000000
X_100_8                       1.000000
X_101_3                       1.000000
X_102_7                       1.000000
X_103_3                       1.000000
X_104_1                       1.000000
X_105_9                       1.000000
X_106_10                      1.000000
X_107_3                       1.000000
X_108_6                       1.000000
X_109_9                       1.000000
X_110_10                      1.000000
X_111_4                       1.000000
X_112_5                       1.000000
X_113_2                       1.000000
X_114_5                       1.000000
X_115_4                       1.000000
X_116_1                       1.000000
X_117_2                       1.000000
X_118_9                       1.000000
X_119_2                       1.000000
X_120_5                       1.000000
X_121_8                       1.000000
X_122_9                       1.000000
X_123_9                       1.000000
X_124_3                       1.000000
X_125_8                       1.000000
X_126_7                       1.000000
X_127_10                      1.000000
X_128_1                       1.000000
X_129_4                       1.000000
X_130_6                       1.000000
X_131_7                       1.000000
X_132_4                       1.000000
X_133_8                       1.000000
X_134_3                       1.000000
X_135_4                       1.000000
X_136_5                       1.000000
X_137_1                       1.000000
X_138_8                       1.000000
X_139_5                       1.000000
X_140_6                       1.000000
X_141_1                       1.000000
X_142_7                       1.000000
X_143_3                       1.000000
X_144_8                       1.000000
X_145_4                       1.000000
X_146_8                       1.000000
X_147_4                       1.000000
X_148_9                       1.000000
X_149_6                       1.000000
X_150_8                       1.000000
X_151_5                       1.000000
X_152_6                       1.000000
X_153_5                       1.000000
X_154_8                       1.000000
X_155_4                       1.000000
X_156_7                       1.000000
X_157_8                       1.000000
X_158_3                       1.000000
X_159_9                       1.000000
X_160_1                       1.000000
X_161_1                       1.000000
X_162_8                       1.000000
X_163_5                       1.000000
X_164_2                       1.000000
X_165_2                       1.000000
X_166_2                       1.000000
X_167_7                       1.000000
X_168_1                       1.000000
X_169_10                      1.000000
X_170_2                       1.000000
X_171_9                       1.000000
X_172_2                       1.000000
X_173_3                       1.000000
X_174_8                       1.000000
X_175_6                       1.000000
X_176_9                       1.000000
X_177_1                       1.000000
X_178_10                      1.000000
X_179_8                       1.000000
X_180_7                       1.000000
X_181_5                       1.000000
X_182_4                       1.000000
X_183_4                       1.000000
X_184_6                       1.000000
X_185_3                       1.000000
X_186_6                       1.000000
X_187_6                       1.000000
X_188_10                      1.000000
X_189_1                       1.000000
X_190_4                       1.000000
X_191_7                       1.000000
X_192_7                       1.000000
X_193_2                       1.000000
X_194_3                       1.000000
X_195_6                       1.000000
X_196_2                       1.000000
X_197_6                       1.000000
X_198_2                       1.000000
X_199_10                      1.000000
X_200_1                       1.000000
All other variables in the range 1-2001 are 0.
